p cnf 747 1709
a 1 2 3 4 5 6 7 8 9 10 11 12 13 15 16 17 18 19 20 21 22 23 24 25 26 27 28 29 30 31 32 33 34 35 36 37 38 39 40 41 42 43 44 45 46 47 48 49 53 54 55 56 57 58 62 66 67 68 69 70 71 72 73 80 81 82 0
e 14 50 51 52 59 60 61 63 64 65 74 75 76 77 78 79 83 84 85 86 87 88 89 90 91 92 93 94 95 96 97 98 99 100 101 102 103 104 105 106 107 108 109 110 111 112 113 114 115 116 117 118 119 120 121 122 123 124 125 126 127 128 129 130 131 132 133 134 135 136 137 138 139 140 141 142 143 144 145 146 147 148 149 150 151 152 153 154 155 156 157 158 159 160 161 162 163 164 165 166 167 168 169 170 171 172 173 174 175 176 177 178 179 180 181 182 183 184 185 186 187 188 189 190 191 192 193 194 195 196 197 198 199 200 201 202 203 204 205 206 207 208 209 210 211 212 213 214 215 216 217 218 219 220 221 222 223 224 225 226 227 228 229 230 231 232 233 234 235 236 237 238 239 240 241 242 243 244 245 246 247 248 249 250 251 252 253 254 255 256 257 258 259 260 261 262 263 264 265 266 267 268 269 270 271 272 273 274 275 276 277 278 279 280 281 282 283 284 285 286 287 288 289 290 291 292 293 294 295 296 297 298 299 300 301 302 303 304 305 306 307 308 309 310 311 312 313 314 315 316 317 318 319 320 321 322 323 324 325 326 327 328 329 330 331 332 333 334 335 336 337 338 339 340 341 342 343 344 345 346 347 348 349 350 351 352 353 354 355 356 357 358 359 360 361 362 363 364 365 366 367 368 369 370 371 372 373 374 375 376 377 378 379 380 381 382 383 384 385 386 387 388 389 390 391 392 393 394 395 396 397 398 399 400 401 402 403 404 405 406 407 408 409 410 411 412 413 414 415 416 417 418 419 420 421 422 423 424 425 426 427 428 429 430 431 432 433 434 435 436 437 438 439 440 441 442 443 444 445 446 447 448 449 450 451 452 453 454 455 456 457 458 459 460 461 462 463 464 465 466 467 468 469 470 471 472 473 474 475 476 477 478 479 480 481 482 483 484 485 486 487 488 489 490 491 492 493 494 495 496 497 498 499 500 501 502 503 504 505 506 507 508 509 510 511 512 513 514 515 516 517 518 519 520 521 522 523 524 525 526 527 528 529 530 531 532 533 534 535 536 537 538 539 540 541 542 543 544 545 546 547 548 549 550 551 552 553 554 555 556 557 558 559 560 561 562 563 564 565 566 567 568 569 570 571 572 573 574 575 576 577 578 579 580 581 582 583 584 585 586 587 588 589 590 591 592 593 594 595 596 597 598 599 600 601 602 603 604 605 606 607 608 609 610 611 612 613 614 615 616 617 618 619 620 621 622 623 624 625 626 627 628 629 630 631 632 633 634 635 636 637 638 639 640 641 642 643 644 645 646 647 648 649 650 651 652 653 654 655 656 657 658 659 660 661 662 663 664 665 666 667 668 669 670 671 672 673 674 675 676 677 678 679 680 681 682 683 684 685 686 687 688 689 690 691 692 693 694 695 696 697 698 699 700 701 702 703 704 705 706 707 708 709 710 711 712 713 714 715 716 717 718 719 720 721 722 723 724 725 726 727 728 729 730 731 732 733 734 735 736 737 738 739 740 741 742 743 744 745 746 747 0
-747 0
747 -414 0
747 -746 0
14 61 52 65 -745 -420 -419 -418 -417 -416 -415 746 0
745 -453 0
745 -482 0
745 -505 0
745 -528 0
745 -545 0
745 -568 0
745 -585 0
745 -608 0
745 -625 0
745 -642 0
745 -659 0
745 -676 0
745 -693 0
745 -710 0
745 -727 0
745 -744 0
-452 -451 -450 -449 -743 744 0
743 -732 0
743 -737 0
743 -742 0
39 38 37 56 57 73 72 -446 -741 -740 -739 -738 -445 -524 -523 742 0
741 75 0
741 6 0
740 -75 0
740 3 0
739 74 0
739 45 0
738 42 0
738 -74 0
25 24 26 54 53 71 70 -437 -736 -735 -436 -734 -733 -518 -517 737 0
736 75 0
736 4 0
735 -75 0
735 2 0
734 74 0
734 32 0
733 -74 0
733 29 0
12 11 10 69 68 48 47 -428 -731 -730 -729 -728 -426 -510 -509 732 0
731 75 0
731 5 0
730 -75 0
730 1 0
729 74 0
729 19 0
728 -74 0
728 16 0
-452 -451 -450 -449 -726 727 0
726 -715 0
726 -720 0
726 -725 0
39 38 35 37 36 34 40 -724 -723 -564 -722 -604 -603 -721 -563 725 0
724 14 0
724 6 0
723 3 0
723 -14 0
722 45 0
722 14 0
721 42 0
721 -14 0
25 24 23 22 21 27 26 -719 -718 -598 -717 -558 -597 -716 -557 720 0
719 14 0
719 4 0
718 2 0
718 -14 0
717 32 0
717 14 0
716 29 0
716 -14 0
13 9 7 8 12 11 10 -551 -714 -713 -550 -591 -712 -590 -711 715 0
714 14 0
714 5 0
713 1 0
713 -14 0
712 14 0
712 19 0
711 16 0
711 -14 0
-452 -451 -450 -449 -709 710 0
709 -698 0
709 -703 0
709 -708 0
39 38 37 36 56 73 72 -707 -706 -604 -603 -705 -502 -704 -501 708 0
707 51 0
707 6 0
706 -51 0
706 3 0
705 45 0
705 50 0
704 42 0
704 -50 0
25 24 23 26 53 71 70 -702 -701 -700 -495 -598 -597 -699 -494 703 0
702 51 0
702 4 0
701 -51 0
701 2 0
700 50 0
700 32 0
699 -50 0
699 29 0
9 12 11 10 69 68 47 -697 -696 -695 -488 -591 -590 -486 -694 698 0
697 51 0
697 5 0
696 -51 0
696 1 0
695 50 0
695 19 0
694 -50 0
694 16 0
-452 -451 -450 -449 -692 693 0
692 -681 0
692 -686 0
692 -691 0
39 38 37 34 40 57 72 -690 -689 -524 -523 -502 -501 -688 -687 691 0
690 -52 0
690 3 0
689 52 0
689 6 0
688 45 0
688 52 0
687 42 0
687 -52 0
25 24 21 27 26 54 70 -685 -684 -683 -495 -518 -517 -494 -682 686 0
685 52 0
685 32 0
684 -52 0
684 2 0
683 52 0
683 4 0
682 -52 0
682 29 0
13 7 12 11 10 68 48 -680 -679 -488 -510 -509 -486 -678 -677 681 0
680 -52 0
680 1 0
679 52 0
679 5 0
678 52 0
678 19 0
677 -52 0
677 16 0
-452 -451 -450 -449 -675 676 0
675 -664 0
675 -669 0
675 -674 0
38 35 37 56 40 58 57 -673 -672 -564 -524 -523 -563 -671 -670 674 0
673 45 0
673 51 0
672 50 0
672 6 0
671 42 0
671 -51 0
670 -50 0
670 3 0
25 24 22 27 54 53 55 -668 -518 -517 -558 -557 -667 -666 -665 669 0
668 51 0
668 32 0
667 50 0
667 4 0
666 -51 0
666 29 0
665 -50 0
665 2 0
13 8 11 10 49 48 47 -663 -551 -550 -510 -509 -662 -661 -660 664 0
663 51 0
663 19 0
662 50 0
662 5 0
661 -51 0
661 16 0
660 -50 0
660 1 0
-452 -451 -450 -449 -658 659 0
658 -647 0
658 -652 0
658 -657 0
39 38 37 36 56 40 72 -656 -655 -654 -446 -445 -604 -603 -653 657 0
656 60 0
656 6 0
655 -60 0
655 3 0
654 42 0
654 -59 0
653 59 0
653 45 0
25 24 23 27 26 53 70 -651 -650 -437 -436 -598 -597 -649 -648 652 0
651 60 0
651 4 0
650 -60 0
650 2 0
649 59 0
649 32 0
648 -59 0
648 29 0
13 9 12 11 10 68 47 -646 -645 -644 -428 -591 -426 -590 -643 647 0
646 60 0
646 5 0
645 -60 0
645 1 0
644 -59 0
644 16 0
643 59 0
643 19 0
-452 -451 -450 -449 -641 642 0
641 -630 0
641 -635 0
641 -640 0
39 38 37 34 40 57 72 -446 -639 -638 -445 -637 -636 -479 -478 640 0
639 61 0
639 6 0
638 -61 0
638 3 0
637 45 0
637 61 0
636 42 0
636 -61 0
25 24 21 27 26 54 70 -437 -634 -633 -436 -632 -631 -470 -469 635 0
634 61 0
634 4 0
633 -61 0
633 2 0
632 61 0
632 32 0
631 -61 0
631 29 0
13 7 12 11 10 68 48 -428 -629 -628 -426 -627 -626 -460 -459 630 0
629 61 0
629 5 0
628 -61 0
628 1 0
627 61 0
627 19 0
626 -61 0
626 16 0
-452 -451 -450 -449 -624 625 0
624 -613 0
624 -618 0
624 -623 0
39 38 35 37 56 40 57 -622 -621 -620 -564 -563 -479 -478 -619 623 0
622 60 0
622 45 0
621 -59 0
621 3 0
620 59 0
620 6 0
619 42 0
619 -60 0
25 24 22 27 26 54 53 -617 -616 -615 -558 -557 -470 -469 -614 618 0
617 60 0
617 32 0
616 -59 0
616 2 0
615 59 0
615 4 0
614 -60 0
614 29 0
13 8 12 11 10 48 47 -612 -611 -551 -610 -609 -550 -460 -459 613 0
612 60 0
612 19 0
611 59 0
611 5 0
610 -59 0
610 1 0
609 -60 0
609 16 0
-452 -451 -450 -449 -607 608 0
607 -592 0
607 -599 0
607 -606 0
39 38 36 56 40 72 82 -605 -604 -603 -602 -477 -601 -600 -476 606 0
605 64 0
605 6 0
604 46 0
604 14 0
603 43 0
603 -14 0
602 63 0
602 45 0
601 42 0
601 -63 0
600 -64 0
600 3 0
25 23 27 26 53 81 70 -598 -597 -596 -595 -468 -594 -593 -467 599 0
598 33 0
598 14 0
597 30 0
597 -14 0
596 63 0
596 32 0
595 64 0
595 4 0
594 -63 0
594 29 0
593 -64 0
593 2 0
13 9 12 11 68 47 80 -591 -590 -589 -588 -458 -587 -586 -457 592 0
591 14 0
591 20 0
590 17 0
590 -14 0
589 63 0
589 19 0
588 64 0
588 5 0
587 -63 0
587 16 0
586 -64 0
586 1 0
-452 -451 -450 -449 -584 585 0
584 -573 0
584 -578 0
584 -583 0
39 34 67 40 57 72 82 -582 -477 -476 -581 -580 -579 -444 -443 583 0
582 65 0
582 6 0
581 65 0
581 45 0
580 42 0
580 -65 0
579 -65 0
579 3 0
21 27 26 54 81 66 70 -468 -467 -577 -576 -575 -574 -435 -434 578 0
577 65 0
577 32 0
576 65 0
576 4 0
575 -65 0
575 29 0
574 -65 0
574 2 0
13 7 12 68 48 62 80 -458 -457 -572 -571 -570 -569 -425 -424 573 0
572 65 0
572 19 0
571 65 0
571 5 0
570 -65 0
570 16 0
569 -65 0
569 1 0
-452 -451 -450 -449 -567 568 0
567 -552 0
567 -559 0
567 -566 0
39 35 37 56 67 40 57 -565 -564 -563 -444 -443 -562 -561 -560 566 0
565 63 0
565 6 0
564 44 0
564 14 0
563 41 0
563 -14 0
562 64 0
562 45 0
561 42 0
561 -64 0
560 -63 0
560 3 0
24 22 27 26 54 53 66 -558 -557 -435 -434 -556 -555 -554 -553 559 0
558 31 0
558 14 0
557 28 0
557 -14 0
556 64 0
556 32 0
555 63 0
555 4 0
554 -64 0
554 29 0
553 -63 0
553 2 0
13 8 12 10 48 62 47 -551 -550 -425 -424 -549 -548 -547 -546 552 0
551 15 0
551 -14 0
550 14 0
550 18 0
549 64 0
549 19 0
548 63 0
548 5 0
547 -64 0
547 16 0
546 -63 0
546 1 0
-452 -451 -450 -449 -544 545 0
544 -533 0
544 -538 0
544 -543 0
38 37 56 40 58 57 72 -542 -502 -501 -479 -478 -541 -540 -539 543 0
542 75 0
542 45 0
541 74 0
541 6 0
540 42 0
540 -75 0
539 -74 0
539 3 0
25 24 27 54 53 55 70 -537 -536 -495 -494 -470 -469 -535 -534 538 0
537 -75 0
537 29 0
536 75 0
536 32 0
535 74 0
535 4 0
534 -74 0
534 2 0
13 11 10 68 49 48 47 -532 -531 -488 -486 -460 -459 -530 -529 533 0
532 -75 0
532 16 0
531 75 0
531 19 0
530 74 0
530 5 0
529 -74 0
529 1 0
-452 -451 -450 -449 -527 528 0
527 -512 0
527 -519 0
527 -526 0
39 38 56 40 57 72 82 -525 -524 -523 -477 -476 -522 -521 -520 526 0
525 45 0
525 76 0
524 46 0
524 52 0
523 43 0
523 -52 0
522 77 0
522 6 0
521 42 0
521 -76 0
520 -77 0
520 3 0
25 27 26 54 53 81 70 -518 -517 -468 -467 -516 -515 -514 -513 519 0
518 52 0
518 33 0
517 -52 0
517 30 0
516 76 0
516 32 0
515 77 0
515 4 0
514 -76 0
514 29 0
513 -77 0
513 2 0
13 12 11 68 48 47 80 -511 -510 -509 -458 -457 -508 -507 -506 512 0
511 76 0
511 19 0
510 52 0
510 20 0
509 -52 0
509 17 0
508 77 0
508 5 0
507 -76 0
507 16 0
506 -77 0
506 1 0
-452 -451 -450 -449 -504 505 0
504 -489 0
504 -496 0
504 -503 0
39 37 56 67 40 57 72 -502 -501 -444 -443 -500 -499 -498 -497 503 0
502 44 0
502 52 0
501 41 0
501 -52 0
500 77 0
500 45 0
499 76 0
499 6 0
498 42 0
498 -77 0
497 -76 0
497 3 0
24 27 26 54 53 66 70 -495 -494 -435 -434 -493 -492 -491 -490 496 0
495 52 0
495 31 0
494 -52 0
494 28 0
493 77 0
493 32 0
492 76 0
492 4 0
491 -77 0
491 29 0
490 -76 0
490 2 0
13 12 10 68 48 62 47 -488 -487 -486 -425 -424 -485 -484 -483 489 0
488 -52 0
488 15 0
487 77 0
487 19 0
486 52 0
486 18 0
485 76 0
485 5 0
484 -77 0
484 16 0
483 -76 0
483 1 0
-452 -451 -450 -449 -481 482 0
481 -462 0
481 -471 0
481 -480 0
39 38 56 57 73 72 82 -479 -478 -477 -476 -475 -474 -473 -472 480 0
479 46 0
479 61 0
478 43 0
478 -61 0
477 44 0
477 65 0
476 41 0
476 -65 0
475 78 0
475 45 0
474 79 0
474 6 0
473 42 0
473 -78 0
472 -79 0
472 3 0
25 26 54 53 81 71 70 -470 -469 -468 -467 -466 -465 -464 -463 471 0
470 61 0
470 33 0
469 -61 0
469 30 0
468 65 0
468 31 0
467 -65 0
467 28 0
466 78 0
466 32 0
465 79 0
465 4 0
464 -78 0
464 29 0
463 -79 0
463 2 0
12 11 69 68 48 47 80 -461 -460 -459 -458 -457 -456 -455 -454 462 0
461 78 0
461 19 0
460 61 0
460 20 0
459 -61 0
459 17 0
458 65 0
458 18 0
457 -65 0
457 15 0
456 79 0
456 5 0
455 -78 0
455 16 0
454 -79 0
454 1 0
-452 -451 -450 -449 -448 453 0
452 5 0
452 -4 0
451 4 0
451 -6 0
450 3 0
450 -2 0
449 2 0
449 -1 0
448 -429 0
448 -438 0
448 -447 0
37 56 67 40 58 57 72 -446 -445 -444 -443 -442 -441 -440 -439 447 0
446 41 0
446 -61 0
445 44 0
445 61 0
444 65 0
444 46 0
443 43 0
443 -65 0
442 79 0
442 45 0
441 78 0
441 6 0
440 42 0
440 -79 0
439 -78 0
439 3 0
24 27 54 53 55 66 70 -437 -436 -435 -434 -433 -432 -431 -430 438 0
437 -61 0
437 28 0
436 61 0
436 31 0
435 65 0
435 33 0
434 -65 0
434 30 0
433 79 0
433 32 0
432 78 0
432 4 0
431 -79 0
431 29 0
430 -78 0
430 2 0
13 10 68 49 48 62 47 -428 -427 -426 -425 -424 -423 -422 -421 429 0
428 -61 0
428 15 0
427 79 0
427 19 0
426 61 0
426 18 0
425 65 0
425 20 0
424 -65 0
424 17 0
423 78 0
423 5 0
422 -79 0
422 16 0
421 -78 0
421 1 0
420 59 0
420 60 0
419 63 0
419 64 0
418 78 0
418 79 0
417 51 0
417 50 0
416 74 0
416 75 0
415 77 0
415 76 0
-413 -396 -379 -362 -345 -328 -311 -294 -277 -254 -237 -214 -197 -174 -151 -122 -89 414 0
413 -412 0
413 -118 0
413 -119 0
413 -120 0
413 -121 0
-411 -406 -401 412 0
411 -192 0
411 -193 0
411 -114 0
411 -407 0
411 -408 0
411 -409 0
411 -410 0
411 -115 0
411 -73 0
411 -72 0
411 -57 0
411 -56 0
411 -39 0
411 -38 0
411 -37 0
-3 75 410 0
-6 -75 409 0
-45 -74 408 0
-42 74 407 0
406 -186 0
406 -187 0
406 -402 0
406 -403 0
406 -105 0
406 -404 0
406 -405 0
406 -106 0
406 -71 0
406 -70 0
406 -54 0
406 -53 0
406 -26 0
406 -25 0
406 -24 0
-2 75 405 0
-4 -75 404 0
-32 -74 403 0
-29 74 402 0
401 -178 0
401 -179 0
401 -95 0
401 -397 0
401 -398 0
401 -399 0
401 -400 0
401 -97 0
401 -69 0
401 -68 0
401 -48 0
401 -47 0
401 -12 0
401 -11 0
401 -10 0
-1 75 400 0
-5 -75 399 0
-19 -74 398 0
-16 74 397 0
396 -395 0
396 -118 0
396 -119 0
396 -120 0
396 -121 0
-394 -389 -384 395 0
394 -232 0
394 -390 0
394 -272 0
394 -273 0
394 -391 0
394 -233 0
394 -392 0
394 -393 0
394 -40 0
394 -39 0
394 -38 0
394 -37 0
394 -36 0
394 -35 0
394 -34 0
-3 14 393 0
-6 -14 392 0
-14 -45 391 0
14 -42 390 0
389 -226 0
389 -385 0
389 -266 0
389 -227 0
389 -386 0
389 -267 0
389 -387 0
389 -388 0
389 -27 0
389 -26 0
389 -25 0
389 -24 0
389 -23 0
389 -22 0
389 -21 0
-2 14 388 0
-4 -14 387 0
-14 -32 386 0
-29 14 385 0
384 -380 0
384 -259 0
384 -381 0
384 -260 0
384 -219 0
384 -220 0
384 -382 0
384 -383 0
384 -13 0
384 -12 0
384 -11 0
384 -10 0
384 -9 0
384 -8 0
384 -7 0
-1 14 383 0
-5 -14 382 0
-14 -19 381 0
-16 14 380 0
379 -378 0
379 -118 0
379 -119 0
379 -120 0
379 -121 0
-377 -372 -367 378 0
377 -170 0
377 -373 0
377 -171 0
377 -374 0
377 -272 0
377 -273 0
377 -375 0
377 -376 0
377 -73 0
377 -72 0
377 -56 0
377 -39 0
377 -38 0
377 -37 0
377 -36 0
-6 -51 376 0
-3 51 375 0
-45 -50 374 0
-42 50 373 0
372 -163 0
372 -368 0
372 -266 0
372 -267 0
372 -164 0
372 -369 0
372 -370 0
372 -371 0
372 -71 0
372 -70 0
372 -53 0
372 -26 0
372 -25 0
372 -24 0
372 -23 0
-4 -51 371 0
-2 51 370 0
-32 -50 369 0
-29 50 368 0
367 -363 0
367 -155 0
367 -259 0
367 -260 0
367 -157 0
367 -364 0
367 -365 0
367 -366 0
367 -69 0
367 -68 0
367 -47 0
367 -12 0
367 -11 0
367 -10 0
367 -9 0
-5 -51 366 0
-1 51 365 0
-19 -50 364 0
-16 50 363 0
362 -361 0
362 -118 0
362 -119 0
362 -120 0
362 -121 0
-360 -355 -350 361 0
360 -356 0
360 -357 0
360 -170 0
360 -171 0
360 -192 0
360 -193 0
360 -358 0
360 -359 0
360 -72 0
360 -57 0
360 -40 0
360 -39 0
360 -38 0
360 -37 0
360 -34 0
-6 -52 359 0
-3 52 358 0
-45 -52 357 0
-42 52 356 0
355 -351 0
355 -163 0
355 -186 0
355 -187 0
355 -164 0
355 -352 0
355 -353 0
355 -354 0
355 -70 0
355 -54 0
355 -27 0
355 -26 0
355 -25 0
355 -24 0
355 -21 0
-32 -52 354 0
-4 -52 353 0
-2 52 352 0
-29 52 351 0
350 -346 0
350 -347 0
350 -155 0
350 -178 0
350 -179 0
350 -157 0
350 -348 0
350 -349 0
350 -68 0
350 -48 0
350 -13 0
350 -12 0
350 -11 0
350 -10 0
350 -7 0
-5 -52 349 0
-1 52 348 0
-19 -52 347 0
-16 52 346 0
345 -344 0
345 -118 0
345 -119 0
345 -120 0
345 -121 0
-343 -338 -333 344 0
343 -339 0
343 -340 0
343 -232 0
343 -192 0
343 -193 0
343 -233 0
343 -341 0
343 -342 0
343 -58 0
343 -57 0
343 -56 0
343 -40 0
343 -38 0
343 -37 0
343 -35 0
-45 -51 342 0
-6 -50 341 0
-42 51 340 0
-3 50 339 0
338 -334 0
338 -335 0
338 -336 0
338 -226 0
338 -227 0
338 -186 0
338 -187 0
338 -337 0
338 -55 0
338 -54 0
338 -53 0
338 -27 0
338 -25 0
338 -24 0
338 -22 0
-32 -51 337 0
-4 -50 336 0
-29 51 335 0
-2 50 334 0
333 -329 0
333 -330 0
333 -331 0
333 -178 0
333 -179 0
333 -219 0
333 -220 0
333 -332 0
333 -49 0
333 -48 0
333 -47 0
333 -13 0
333 -11 0
333 -10 0
333 -8 0
-19 -51 332 0
-5 -50 331 0
-16 51 330 0
-1 50 329 0
328 -327 0
328 -118 0
328 -119 0
328 -120 0
328 -121 0
-326 -321 -316 327 0
326 -322 0
326 -272 0
326 -273 0
326 -114 0
326 -115 0
326 -323 0
326 -324 0
326 -325 0
326 -72 0
326 -56 0
326 -40 0
326 -39 0
326 -38 0
326 -37 0
326 -36 0
-6 -60 325 0
-3 60 324 0
-42 59 323 0
-45 -59 322 0
321 -317 0
321 -318 0
321 -266 0
321 -267 0
321 -105 0
321 -106 0
321 -319 0
321 -320 0
321 -70 0
321 -53 0
321 -27 0
321 -26 0
321 -25 0
321 -24 0
321 -23 0
-4 -60 320 0
-2 60 319 0
-32 -59 318 0
-29 59 317 0
316 -312 0
316 -259 0
316 -95 0
316 -260 0
316 -97 0
316 -313 0
316 -314 0
316 -315 0
316 -68 0
316 -47 0
316 -13 0
316 -12 0
316 -11 0
316 -10 0
316 -9 0
-5 -60 315 0
-1 60 314 0
-16 59 313 0
-19 -59 312 0
311 -310 0
311 -118 0
311 -119 0
311 -120 0
311 -121 0
-309 -304 -299 310 0
309 -147 0
309 -148 0
309 -305 0
309 -306 0
309 -114 0
309 -307 0
309 -308 0
309 -115 0
309 -72 0
309 -57 0
309 -40 0
309 -39 0
309 -38 0
309 -37 0
309 -34 0
-3 61 308 0
-6 -61 307 0
-45 -61 306 0
-42 61 305 0
304 -138 0
304 -139 0
304 -300 0
304 -301 0
304 -105 0
304 -302 0
304 -303 0
304 -106 0
304 -70 0
304 -54 0
304 -27 0
304 -26 0
304 -25 0
304 -24 0
304 -21 0
-2 61 303 0
-4 -61 302 0
-32 -61 301 0
-29 61 300 0
299 -128 0
299 -129 0
299 -295 0
299 -296 0
299 -95 0
299 -297 0
299 -298 0
299 -97 0
299 -68 0
299 -48 0
299 -13 0
299 -12 0
299 -11 0
299 -10 0
299 -7 0
-1 61 298 0
-5 -61 297 0
-19 -61 296 0
-16 61 295 0
294 -293 0
294 -118 0
294 -119 0
294 -120 0
294 -121 0
-292 -287 -282 293 0
292 -288 0
292 -147 0
292 -148 0
292 -232 0
292 -233 0
292 -289 0
292 -290 0
292 -291 0
292 -57 0
292 -56 0
292 -40 0
292 -39 0
292 -38 0
292 -37 0
292 -35 0
-45 -60 291 0
-3 59 290 0
-6 -59 289 0
-42 60 288 0
287 -283 0
287 -138 0
287 -139 0
287 -226 0
287 -227 0
287 -284 0
287 -285 0
287 -286 0
287 -54 0
287 -53 0
287 -27 0
287 -26 0
287 -25 0
287 -24 0
287 -22 0
-32 -60 286 0
-2 59 285 0
-4 -59 284 0
-29 60 283 0
282 -128 0
282 -129 0
282 -219 0
282 -278 0
282 -279 0
282 -220 0
282 -280 0
282 -281 0
282 -48 0
282 -47 0
282 -13 0
282 -12 0
282 -11 0
282 -10 0
282 -8 0
-19 -60 281 0
-5 -59 280 0
-1 59 279 0
-16 60 278 0
277 -276 0
277 -118 0
277 -119 0
277 -120 0
277 -121 0
-275 -268 -261 276 0
275 -145 0
275 -269 0
275 -270 0
275 -146 0
275 -271 0
275 -272 0
275 -273 0
275 -274 0
275 -82 0
275 -72 0
275 -56 0
275 -40 0
275 -39 0
275 -38 0
275 -36 0
-6 -64 274 0
-14 -46 273 0
14 -43 272 0
-45 -63 271 0
-42 63 270 0
-3 64 269 0
268 -136 0
268 -262 0
268 -263 0
268 -137 0
268 -264 0
268 -265 0
268 -266 0
268 -267 0
268 -81 0
268 -70 0
268 -53 0
268 -27 0
268 -26 0
268 -25 0
268 -23 0
-14 -33 267 0
-30 14 266 0
-32 -63 265 0
-4 -64 264 0
-29 63 263 0
-2 64 262 0
261 -126 0
261 -255 0
261 -256 0
261 -127 0
261 -257 0
261 -258 0
261 -259 0
261 -260 0
261 -80 0
261 -68 0
261 -47 0
261 -13 0
261 -12 0
261 -11 0
261 -9 0
-14 -20 260 0
-17 14 259 0
-19 -63 258 0
-5 -64 257 0
-16 63 256 0
-1 64 255 0
254 -253 0
254 -118 0
254 -119 0
254 -120 0
254 -121 0
-252 -247 -242 253 0
252 -112 0
252 -113 0
252 -248 0
252 -249 0
252 -250 0
252 -145 0
252 -146 0
252 -251 0
252 -82 0
252 -72 0
252 -67 0
252 -57 0
252 -40 0
252 -39 0
252 -34 0
-6 -65 251 0
-45 -65 250 0
-42 65 249 0
-3 65 248 0
247 -103 0
247 -104 0
247 -243 0
247 -244 0
247 -245 0
247 -246 0
247 -136 0
247 -137 0
247 -81 0
247 -70 0
247 -66 0
247 -54 0
247 -27 0
247 -26 0
247 -21 0
-32 -65 246 0
-4 -65 245 0
-29 65 244 0
-2 65 243 0
242 -93 0
242 -94 0
242 -238 0
242 -239 0
242 -240 0
242 -241 0
242 -126 0
242 -127 0
242 -80 0
242 -68 0
242 -62 0
242 -48 0
242 -13 0
242 -12 0
242 -7 0
-19 -65 241 0
-5 -65 240 0
-16 65 239 0
-1 65 238 0
237 -236 0
237 -118 0
237 -119 0
237 -120 0
237 -121 0
-235 -228 -221 236 0
235 -229 0
235 -230 0
235 -231 0
235 -112 0
235 -113 0
235 -232 0
235 -233 0
235 -234 0
235 -67 0
235 -57 0
235 -56 0
235 -40 0
235 -39 0
235 -37 0
235 -35 0
-6 -63 234 0
-14 -44 233 0
14 -41 232 0
-45 -64 231 0
-42 64 230 0
-3 63 229 0
228 -222 0
228 -223 0
228 -224 0
228 -225 0
228 -103 0
228 -104 0
228 -226 0
228 -227 0
228 -66 0
228 -54 0
228 -53 0
228 -27 0
228 -26 0
228 -24 0
228 -22 0
-14 -31 227 0
-28 14 226 0
-32 -64 225 0
-4 -63 224 0
-29 64 223 0
-2 63 222 0
221 -215 0
221 -216 0
221 -217 0
221 -218 0
221 -93 0
221 -94 0
221 -219 0
221 -220 0
221 -62 0
221 -48 0
221 -47 0
221 -13 0
221 -12 0
221 -10 0
221 -8 0
-15 14 220 0
-14 -18 219 0
-19 -64 218 0
-5 -63 217 0
-16 64 216 0
-1 63 215 0
214 -213 0
214 -118 0
214 -119 0
214 -120 0
214 -121 0
-212 -207 -202 213 0
212 -208 0
212 -209 0
212 -210 0
212 -147 0
212 -148 0
212 -170 0
212 -171 0
212 -211 0
212 -72 0
212 -58 0
212 -57 0
212 -56 0
212 -40 0
212 -38 0
212 -37 0
-45 -75 211 0
-6 -74 210 0
-42 75 209 0
-3 74 208 0
207 -203 0
207 -204 0
207 -138 0
207 -139 0
207 -163 0
207 -164 0
207 -205 0
207 -206 0
207 -70 0
207 -55 0
207 -54 0
207 -53 0
207 -27 0
207 -25 0
207 -24 0
-29 75 206 0
-32 -75 205 0
-4 -74 204 0
-2 74 203 0
202 -198 0
202 -199 0
202 -128 0
202 -129 0
202 -155 0
202 -157 0
202 -200 0
202 -201 0
202 -68 0
202 -49 0
202 -48 0
202 -47 0
202 -13 0
202 -11 0
202 -10 0
-16 75 201 0
-19 -75 200 0
-5 -74 199 0
-1 74 198 0
197 -196 0
197 -118 0
197 -119 0
197 -120 0
197 -121 0
-195 -188 -181 196 0
195 -189 0
195 -190 0
195 -191 0
195 -145 0
195 -146 0
195 -192 0
195 -193 0
195 -194 0
195 -82 0
195 -72 0
195 -57 0
195 -56 0
195 -40 0
195 -39 0
195 -38 0
-45 -76 194 0
-46 -52 193 0
-43 52 192 0
-6 -77 191 0
-42 76 190 0
-3 77 189 0
188 -182 0
188 -183 0
188 -184 0
188 -185 0
188 -136 0
188 -137 0
188 -186 0
188 -187 0
188 -81 0
188 -70 0
188 -54 0
188 -53 0
188 -27 0
188 -26 0
188 -25 0
-33 -52 187 0
-30 52 186 0
-32 -76 185 0
-4 -77 184 0
-29 76 183 0
-2 77 182 0
181 -175 0
181 -176 0
181 -177 0
181 -126 0
181 -127 0
181 -178 0
181 -179 0
181 -180 0
181 -80 0
181 -68 0
181 -48 0
181 -47 0
181 -13 0
181 -12 0
181 -11 0
-19 -76 180 0
-20 -52 179 0
-17 52 178 0
-5 -77 177 0
-16 76 176 0
-1 77 175 0
174 -173 0
174 -118 0
174 -119 0
174 -120 0
174 -121 0
-172 -165 -158 173 0
172 -166 0
172 -167 0
172 -168 0
172 -169 0
172 -112 0
172 -113 0
172 -170 0
172 -171 0
172 -72 0
172 -67 0
172 -57 0
172 -56 0
172 -40 0
172 -39 0
172 -37 0
-44 -52 171 0
-41 52 170 0
-45 -77 169 0
-6 -76 168 0
-42 77 167 0
-3 76 166 0
165 -159 0
165 -160 0
165 -161 0
165 -162 0
165 -103 0
165 -104 0
165 -163 0
165 -164 0
165 -70 0
165 -66 0
165 -54 0
165 -53 0
165 -27 0
165 -26 0
165 -24 0
-31 -52 164 0
-28 52 163 0
-32 -77 162 0
-4 -76 161 0
-29 77 160 0
-2 76 159 0
158 -152 0
158 -153 0
158 -154 0
158 -93 0
158 -94 0
158 -155 0
158 -156 0
158 -157 0
158 -68 0
158 -62 0
158 -48 0
158 -47 0
158 -13 0
158 -12 0
158 -10 0
-15 52 157 0
-19 -77 156 0
-18 -52 155 0
-5 -76 154 0
-16 77 153 0
-1 76 152 0
151 -150 0
151 -118 0
151 -119 0
151 -120 0
151 -121 0
-149 -140 -131 150 0
149 -141 0
149 -142 0
149 -143 0
149 -144 0
149 -145 0
149 -146 0
149 -147 0
149 -148 0
149 -82 0
149 -73 0
149 -72 0
149 -57 0
149 -56 0
149 -39 0
149 -38 0
-46 -61 148 0
-43 61 147 0
-44 -65 146 0
-41 65 145 0
-45 -78 144 0
-6 -79 143 0
-42 78 142 0
-3 79 141 0
140 -132 0
140 -133 0
140 -134 0
140 -135 0
140 -136 0
140 -137 0
140 -138 0
140 -139 0
140 -81 0
140 -71 0
140 -70 0
140 -54 0
140 -53 0
140 -26 0
140 -25 0
-33 -61 139 0
-30 61 138 0
-31 -65 137 0
-28 65 136 0
-32 -78 135 0
-4 -79 134 0
-29 78 133 0
-2 79 132 0
131 -123 0
131 -124 0
131 -125 0
131 -126 0
131 -127 0
131 -128 0
131 -129 0
131 -130 0
131 -80 0
131 -69 0
131 -68 0
131 -48 0
131 -47 0
131 -12 0
131 -11 0
-19 -78 130 0
-20 -61 129 0
-17 61 128 0
-18 -65 127 0
-15 65 126 0
-5 -79 125 0
-16 78 124 0
-1 79 123 0
122 -117 0
122 -118 0
122 -119 0
122 -120 0
122 -121 0
-5 4 121 0
-4 6 120 0
-3 2 119 0
-2 1 118 0
-116 -107 -98 117 0
116 -108 0
116 -109 0
116 -110 0
116 -111 0
116 -112 0
116 -113 0
116 -114 0
116 -115 0
116 -72 0
116 -67 0
116 -58 0
116 -57 0
116 -56 0
116 -40 0
116 -37 0
-41 61 115 0
-44 -61 114 0
-46 -65 113 0
-43 65 112 0
-45 -79 111 0
-6 -78 110 0
-42 79 109 0
-3 78 108 0
107 -99 0
107 -100 0
107 -101 0
107 -102 0
107 -103 0
107 -104 0
107 -105 0
107 -106 0
107 -70 0
107 -66 0
107 -55 0
107 -54 0
107 -53 0
107 -27 0
107 -24 0
-28 61 106 0
-31 -61 105 0
-33 -65 104 0
-30 65 103 0
-32 -79 102 0
-4 -78 101 0
-29 79 100 0
-2 78 99 0
98 -90 0
98 -91 0
98 -92 0
98 -93 0
98 -94 0
98 -95 0
98 -96 0
98 -97 0
98 -68 0
98 -62 0
98 -49 0
98 -48 0
98 -47 0
98 -13 0
98 -10 0
-15 61 97 0
-19 -79 96 0
-18 -61 95 0
-20 -65 94 0
-17 65 93 0
-5 -78 92 0
-16 79 91 0
-1 78 90 0
89 -83 0
89 -84 0
89 -85 0
89 -86 0
89 -87 0
89 -88 0
89 -65 0
89 -61 0
89 -52 0
89 -14 0
-59 -60 88 0
-63 -64 87 0
-78 -79 86 0
-50 -51 85 0
-74 -75 84 0
-76 -77 83 0
